c --- [ banner ] -------------------------------------------------------------
c 
c CaDiCaL Radically Simplified CDCL SAT Solver
c Copyright (c) 2016-2021 A. Biere, M. Fleury, N. Froleyks
c 
c Version 1.5.2 a5f15211db36c3956764e18194dd5bd63bf3b5e6
c g++ (GCC) 9.3.0 -Wall -Wextra -O3 -DNDEBUG
c Fri Oct 21 01:27:37 EDT 2022 Linux gra-login3 3.10.0-1160.66.1.el7.x86_64 x86_64
c 
c --- [ limit ] --------------------------------------------------------------
c 
c setting conflict limit to 200000 conflicts (due to '200000')
c 
c --- [ parsing input ] ------------------------------------------------------
c 
c reading DIMACS file from '33.cubes6967.adj'
c opening file to read '33.cubes6967.adj'
c found 'p cnf 6160 1595473' header
c parsed 1595473 clauses in 19.67 seconds process time
c closing file '33.cubes6967.adj'
c after reading 1457566764 bytes 1390.0 MB
c 
c --- [ options ] ------------------------------------------------------------
c 
c all options are set to their default value
c 
c --- [ solving ] ------------------------------------------------------------
c 
c time measured in process time since initialization
c 
c  seconds    reductions  redundant   irredundant
c          MB     restarts       trail       variables
c            level   conflicts       glue         remaining
c 
c * 19.67 1377  0 0   0    0    0  0% 0 1595422 2403 39%
c { 20.92 1436  0 0   0    0    0  0% 0 1595422 2403 39%
c i 22.38 1475 1109 0   1   42   35 43% 3 1595422 2391 39%
c i 22.40 1476 1082 0   1   43   35 42% 3 1595422 2365 38%
c i 22.40 1476 1057 0   1   44   35 42% 2 1595422 2353 38%
c i 24.53 1505 537 0  11   94   61 31% 8 1595422 2349 38%
c i 24.62 1506 524 0  12   97   63 31% 8 1595422 2348 38%
c i 24.74 1507 521 0  13   98   63 31% 7 1595422 2347 38%
c i 26.02 1516 431 0  21  131   93 30% 23 1595422 2346 38%
c i 26.24 1517 401 0  24  142  100 29% 23 1595422 2345 38%
c i 26.69 1520 322 0  32  185  128 29% 24 1595422 2344 38%
c i 26.74 1522 314 0  33  190  132 29% 24 1595422 2343 38%
c i 26.76 1522 308 0  34  193  134 29% 23 1595422 2342 38%
c i 27.23 1524 303 0  37  202  142 29% 25 1595422 2341 38%
c i 27.97 1525 283 0  43  231  170 29% 32 1595422 2340 38%
c i 28.20 1525 268 0  50  252  188 29% 32 1595422 2339 38%
c i 28.21 1525 266 0  50  254  189 29% 32 1595422 2338 38%
c - 32.50 1397 231 1  59  300  228 29% 32 250103 2338 38%
c i 32.63 1398 227 1  59  308  235 29% 32 250103 2337 38%
c i 32.88 1398 206 1  61  351  263 29% 32 250103 2336 38%
c 
c  seconds     reductions  redundant   irredundant
c          MB      restarts       trail       variables
c             level   conflicts       glue         remaining
c 
c i 33.05 1398 181 1  61  408  310 29% 30 250103 2335 38%
c i 33.14 1398 168 1  62  451  346 29% 30 250103 2334 38%
c i 33.22 1398 164 1  67  475  365 29% 31 250103 2330 38%
c i 33.27 1398 162 1  70  488  377 29% 31 250103 2328 38%
c i 33.43 1398 155 1  74  522  408 29% 32 250103 2327 38%
c i 33.66 1398 139 1  79  608  469 29% 30 250103 2326 38%
c i 33.66 1398 138 1  79  614  472 29% 30 250103 2325 38%
c i 33.92 1398 106 1  79  958  763 30% 30 250103 2324 38%
c } 33.93 1398 102 1  79 1000  784 30% 29 250103 2324 38%
c [ 33.93 1398  0 1  79 1000  784  0% 0 250103 2324 38%
c O 34.01 1398 12 1  79 1004  787 32% 9 250103 2324 38%
c i 34.22 1398 12 1  79 1054  809 24% 6 250103 2323 38%
c i 34.27 1398 18 1  79 1070  823 26% 10 250103 2322 38%
c i 34.27 1398 18 1  79 1071  823 26% 10 250103 2321 38%
c i 34.28 1398 18 1  79 1074  825 26% 10 250103 2320 38%
c i 34.28 1398 18 1  79 1078  828 27% 11 250103 2319 38%
c i 34.30 1398 19 1  79 1097  842 27% 12 250103 2318 38%
c i 34.31 1398 20 1  79 1108  849 28% 12 250103 2317 38%
c i 34.33 1398 21 1  79 1133  861 28% 14 250103 2316 38%
c - 34.78 1509 21 2  79 1138  780 28% 14 249999 2316 38%
c 
c  seconds    reductions  redundant   irredundant
c          MB     restarts       trail       variables
c            level   conflicts       glue         remaining
c 
c i 34.84 1509 21 2  79 1150  787 29% 15 249999 2315 38%
c i 34.85 1509 21 2  79 1167  799 29% 15 249999 2314 38%
c i 34.87 1509 21 2  79 1184  808 29% 15 249999 2313 38%
c i 34.87 1509 20 2  79 1192  814 29% 15 249999 2312 38%
c i 34.91 1509 18 2  79 1289  868 30% 14 249999 2311 38%
c i 34.96 1509 19 2  79 1405  933 30% 15 249999 2310 38%
c i 34.96 1509 19 2  79 1406  933 30% 15 249999 2309 37%
c i 34.97 1509 19 2  79 1413  938 30% 15 249999 2308 37%
c ] 35.02 1509 22 2  79 1480  971 30% 18 249999 2308 37%
c 1 35.02 1509 22 2  79 1480  971 30% 18 249999 2308 37%
c 
c --- [ writing output ] -----------------------------------------------------
c 
c writing simplified CNF to DIMACS file 'simp/33.cubes6967.adj.simp1'
c * 35.02 1509 22 2  79 1480  971 30% 18 249999 2308 37%
c opening file to write 'simp/33.cubes6967.adj.simp1'
c writing 'p cnf 6160 249976' header
c closing file 'simp/33.cubes6967.adj.simp1'
c after writing 126928832 bytes 121.0 MB
c wrote 249976 clauses in 0.95 seconds process time
c 
c --- [ writing extension ] --------------------------------------------------
c 
c writing extension stack to 'simp/33.cubes6967.adj.ext1'
c opening file to write 'simp/33.cubes6967.adj.ext1'
c closing file 'simp/33.cubes6967.adj.ext1'
c after writing 10350 bytes 0.0 MB
c wrote 708 witnesses in 0.00 seconds process time
c 
c --- [ result ] -------------------------------------------------------------
c 
s SATISFIABLE
c 
c --- [ run-time profiling ] -------------------------------------------------
c 
c process time taken by individual solving procedures
c (percentage relative to process time for solving)
c 
c        19.67  128.21% parse
c        15.34  100.00% search
c        13.01   84.79% unstable
c         1.25    8.13% lucky
c         1.09    7.08% stable
c         0.00    0.00% simplify
c   =================================
c        15.34   42.66% solve
c 
c last line shows process time for solving
c (percentage relative to total process time)
c 
c --- [ statistics ] ---------------------------------------------------------
c 
c chronological:               496        33.51 %  of conflicts
c conflicts:                  1480        96.46    per second
c decisions:                 15311       997.90    per second
c fixed:                       708        11.49 %  of all variables
c learned:                    1438        97.16 %  per conflict
c learned_lits:             241661       100.00 %  learned literals
c minimized:                     0         0.00 %  learned literals
c shrunken:                 164552        68.09 %  learned literals
c minishrunken:              11372         4.71 %  learned literals
c propagations:             259520         0.02 M  per second
c reduced:                      83         5.61 %  per conflict
c rephased:                      1      1480.00    interval
c restarts:                     79        18.73    interval
c stabilizing:                   1        32.43 %  of conflicts
c subsumed:                    342         0.01 %  of all clauses
c 
c seconds are measured in process time for solving
c 
c --- [ resources ] ----------------------------------------------------------
c 
c total process time since initialization:        35.97    seconds
c total real time since initialization:           40.00    seconds
c maximum resident set size of process:         1525.59    MB
c 
c --- [ shutting down ] ------------------------------------------------------
c 
c exit 10
WARNING! DIMACS header mismatch: wrong number of variables.
============================[ Problem Statistics ]=============================
|                                                                             |
|  Number of variables:          6120                                         |
|  Number of clauses:          249976                                         |
|  Parse time:                   1.68 s                                       |
|  Simplification time:          0.05 s                                       |
|                                                                             |
============================[ Search Statistics ]====================================================
| Conflicts |          ORIGINAL         |          LEARNT          | Num Sols |      SUBGRAPHS      |
|           |    Vars  Clauses Literals |    Limit  Clauses Lit/Cl |          | Canonical Noncanon. |
=====================================================================================================
|       101 |    6026   249977 27273752 |     2000       98     81 |        0 |        25         1 |
|       263 |    6025   249989 27273927 |     2000      259    108 |        0 |        30        13 |
|       489 |    6024   249990 27274010 |     2000      484    104 |        0 |        39        14 |
|       835 |    6020   249999 27274241 |     2000      826    107 |        0 |        55        23 |
|      1345 |    6016   250003 27274444 |     2000     1332    110 |        0 |        77        27 |
|      3001 |    6014   250900 27289875 |     3593     1994     29 |        0 |       228       924 |
|      4664 |    6012   251424 27299219 |     5001     1865     20 |        0 |       474      1448 |
|      6391 |    6012   251443 27299498 |     5001     3592     62 |        0 |       482      1467 |
|      9388 |    6012   251878 27307686 |     6302     4090     52 |        0 |       541      1902 |
|     13613 |    6012   252259 27314039 |     7558     5171     51 |        0 |       598      2283 |
|     20230 |    6010   253110 27328232 |     8786     8014     60 |        0 |       663      3134 |
|     29004 |    6005   253235 27331379 |    11200     7402     58 |        0 |       748      3259 |
|     42173 |    6003   253430 27336991 |    13606     8779     52 |        0 |       882      3454 |
|     67468 |    5941   259264 27450187 |    17208    11876     47 |        0 |      2330      9288 |
|     98995 |    5941   261599 27487878 |    20817    15812     48 |        0 |      2650     11623 |
|    158063 |    5940   276878 27716372 |    26805    16868     41 |        0 |      4458     26902 |
|    224001 |    5936   276007 27718821 |    31607    25606     57 |        0 |      4608     27156 |
|    377674 |    5935   331154 28584360 |    41207    36081     18 |        0 |     11503     82303 |
=====================================================================================================
Number of solutions   : 0
Canonical subgraphs   : 25076          (8 /sec)
          order  3    : 1              (125000 /sec)
          order  4    : 1              (333333 /sec)
          order  5    : 1              (166667 /sec)
          order  6    : 1              (37037 /sec)
          order  7    : 1              (5917 /sec)
          order  8    : 2              (1352 /sec)
          order  9    : 6              (314 /sec)
          order 10    : 13             (62 /sec)
          order 11    : 39             (13 /sec)
          order 12    : 187            (4 /sec)
          order 13    : 1078           (4 /sec)
          order 14    : 23746          (8 /sec)
          order 15    : 0              (-nan /sec)
          order 16    : 0              (-nan /sec)
          order 17    : 0              (-nan /sec)
          order 18    : 0              (-nan /sec)
          order 19    : 0              (-nan /sec)
          order 20    : 0              (-nan /sec)
          order 21    : 0              (-nan /sec)
          order 22    : 0              (-nan /sec)
Noncanonical subgraphs: 429804         (59 /sec)
          order  3    : 0              (-nan /sec)
          order  4    : 0              (-nan /sec)
          order  5    : 0              (-nan /sec)
          order  6    : 0              (-nan /sec)
          order  7    : 0              (-nan /sec)
          order  8    : 0              (-nan /sec)
          order  9    : 0              (-nan /sec)
          order 10    : 0              (-nan /sec)
          order 11    : 0              (-nan /sec)
          order 12    : 0              (-nan /sec)
          order 13    : 2417           (17140 /sec)
          order 14    : 15272          (185 /sec)
          order 15    : 412115         (57 /sec)
          order 16    : 0              (-nan /sec)
          order 17    : 0              (-nan /sec)
          order 18    : 0              (-nan /sec)
          order 19    : 0              (-nan /sec)
          order 20    : 0              (-nan /sec)
          order 21    : 0              (-nan /sec)
Canonicity checking   : 3272.08 s
Noncanonicity checking: 7335.69 s
Total canonicity time : 10607.8 s
database reductions   : 47
restarts              : 1541
conflicts             : 744218         (69 /sec)
decisions             : 1332265        (0.00 % random) (123 /sec)
propagations          : 87526951       (8082 /sec)
conflict literals     : 35681264       (58.90 % deleted)
actual reward         : 0.071130
Memory used           : 369.00 MB
CPU time              : 10830 s

UNSATISFIABLE
